(set-logic QF_S)
(declare-fun var0 () String)
(declare-fun var1 () String)
(declare-fun var2 () String)
(declare-fun var3 () String)
(declare-fun var4 () String)
(declare-fun var5 () String)
(declare-fun var6 () String)
(declare-fun var7 () String)
(declare-fun var8 () String)
(declare-fun var9 () String)
(declare-fun var10 () String)
(declare-fun var11 () String)
(declare-fun var12 () String)
(declare-fun var13 () String)
(declare-fun var14 () String)
(declare-fun var15 () String)
(declare-fun var16 () String)
(declare-fun var17 () String)
(declare-fun var18 () String)
(declare-fun var19 () String)
(declare-fun var20 () String)
(declare-fun var21 () String)
(declare-fun var22 () String)
(declare-fun var23 () String)
(declare-fun var24 () String)
(declare-fun var25 () String)
(declare-fun var26 () String)
(declare-fun var27 () String)
(declare-fun var28 () String)
(declare-fun var29 () String)
(declare-fun var30 () String)
(declare-fun var31 () String)
(declare-fun var32 () String)
(declare-fun var33 () String)
(declare-fun var34 () String)
(declare-fun var35 () String)
(declare-fun var36 () String)
(declare-fun var37 () String)
(declare-fun var38 () String)
(declare-fun var39 () String)
(declare-fun var40 () String)
(declare-fun var41 () String)
(declare-fun var42 () String)
(declare-fun var43 () String)
(declare-fun var44 () String)
(declare-fun var45 () String)
(declare-fun var46 () String)
(declare-fun var47 () String)
(declare-fun var48 () String)
(declare-fun var49 () String)
(declare-fun var50 () String)
(declare-fun var51 () String)
(declare-fun var52 () String)
(declare-fun var53 () String)
(declare-fun var54 () String)
(declare-fun var55 () String)
(declare-fun var56 () String)
(declare-fun var57 () String)
(declare-fun var58 () String)
(declare-fun var59 () String)
(declare-fun var60 () String)
(assert (= var0 (str.++ var1 var2)))
(assert (= var2 (str.++ var3 var4)))
(assert (= var4 (str.++ var5 var6)))
(assert (= var6 (str.++ var7 var8)))
(assert (= var8 (str.++ var9 var10)))
(assert (= var10 (str.++ var11 var12)))
(assert (= var12 (str.++ var13 var14)))
(assert (= var14 (str.++ var15 var16)))
(assert (= var16 (str.++ var17 var18)))
(assert (= var18 (str.++ var19 var20)))
(assert (= var20 (str.++ var21 var22)))
(assert (= var22 (str.++ var23 var24)))
(assert (= var24 (str.++ var25 var26)))
(assert (= var26 (str.++ var27 var28)))
(assert (= var28 (str.++ var29 var30)))
(assert (= var30 (str.++ var31 var32)))
(assert (= var32 (str.++ var33 var34)))
(assert (= var34 (str.++ var35 var36)))
(assert (= var36 (str.++ var37 var38)))
(assert (= var38 (str.++ var39 var40)))
(assert (= var40 (str.++ var41 var42)))
(assert (= var42 (str.++ var43 var44)))
(assert (= var44 (str.++ var45 var46)))
(assert (= var46 (str.++ var47 var48)))
(assert (= var48 (str.++ var49 var50)))
(assert (= var50 (str.++ var51 var52)))
(assert (= var52 (str.++ var53 var54)))
(assert (= var54 (str.++ var55 var56)))
(assert (= var56 (str.++ var57 var58)))
(assert (= var58 (str.++ var59 var60)))
(assert (= var0 "solution"))
(assert (= "-" (str.at var15 206)))
(assert (= "5" (str.at var42 379)))
(assert (= "7" (str.at var2 96)))
(assert (= "J" (str.at var39 200)))
(assert (= "5" (str.at var38 458)))
(assert (= "~" (str.at var21 315)))
(assert (= "o" (str.at var4 801)))
(assert (= "*" (str.at var18 931)))
(assert (= "l" (str.at var28 241)))
(assert (= "W" (str.at var12 784)))
(assert (= "Y" (str.at var4 621)))
(assert (= "?" (str.at var11 135)))
(assert (= "d" (str.at var43 900)))
(assert (= "%" (str.at var55 199)))
(assert (= "a" (str.at var44 788)))
(assert (= "y" (str.at var60 116)))
(assert (= "T" (str.at var39 906)))
(assert (= "=" (str.at var49 387)))
(assert (= "a" (str.at var15 610)))
(assert (= "+" (str.at var17 422)))
(assert (= "&" (str.at var23 923)))
(assert (= "7" (str.at var52 727)))
(assert (= "Y" (str.at var11 253)))
(assert (= "7" (str.at var56 129)))
(assert (= "y" (str.at var50 894)))
(assert (= "\\" (str.at var33 233)))
(assert (= "f" (str.at var27 361)))
(assert (= "l" (str.at var56 307)))
(assert (= "R" (str.at var60 881)))
(assert (= "@" (str.at var21 670)))
(assert (= "," (str.at var26 985)))
(assert (= "S" (str.at var30 692)))
(assert (= "V" (str.at var29 150)))
(assert (= "V" (str.at var52 214)))
(assert (= "|" (str.at var19 471)))
(assert (= "(" (str.at var56 606)))
(assert (= "9" (str.at var45 605)))
(assert (= "#" (str.at var34 140)))
(assert (= "t" (str.at var55 88)))
(assert (= "C" (str.at var39 445)))
(assert (= "e" (str.at var14 721)))
(assert (= "@" (str.at var27 360)))
(assert (= "7" (str.at var6 941)))
(assert (= "$" (str.at var9 788)))
(assert (= "%" (str.at var11 121)))
(assert (= "=" (str.at var15 222)))
(assert (= "]" (str.at var16 839)))
(assert (= "H" (str.at var9 648)))
(assert (= "7" (str.at var35 918)))
(assert (= "X" (str.at var44 449)))
(assert (= "@" (str.at var37 391)))
(assert (= "V" (str.at var31 194)))
(assert (= "[" (str.at var23 311)))
(assert (= "{" (str.at var31 321)))
(assert (= "A" (str.at var26 965)))
(assert (= "%" (str.at var7 245)))
(assert (= "x" (str.at var28 981)))
(assert (= "q" (str.at var36 379)))
(assert (= "2" (str.at var42 736)))
(assert (= "E" (str.at var57 928)))
(assert (= "[" (str.at var44 868)))
(assert (= "." (str.at var2 811)))
(assert (= "P" (str.at var43 835)))
(assert (= "}" (str.at var9 385)))
(assert (= "r" (str.at var8 993)))
(assert (= "5" (str.at var34 320)))
(assert (= "y" (str.at var14 650)))
(assert (= "C" (str.at var37 849)))
(assert (= "k" (str.at var22 83)))
(assert (= "6" (str.at var11 964)))
(assert (= ":" (str.at var16 836)))
(assert (= ":" (str.at var3 715)))
(assert (= "{" (str.at var10 318)))
(assert (= "v" (str.at var25 897)))
(assert (= "<" (str.at var30 894)))
(assert (= "v" (str.at var51 183)))
(assert (= "x" (str.at var36 198)))
(assert (= "~" (str.at var35 866)))
(assert (= "\\" (str.at var46 229)))
(assert (= "-" (str.at var39 481)))
(assert (= "1" (str.at var15 595)))
(check-sat)
(get-model)